data;
set WEIGHTS := x0 x1 x2 x3 x4 x5 x6 x7 x8 x9 x10 x11 x12 x13 x14 x15;
param:  cost :=
  x0  777042
  x1  630955
  x2  769872
  x3  422753
  x4  431835
  x5  33405
  x6  960952
  x7  328752
  x8  284227
  x9  401120
  x10  452285
  x11  908682
  x12  201276
  x13  861047
  x14  284707
  x15  917817;
param cap := 4000000;